results_rootrelaxation/bin012_070_025.srr.sol
solution status: optimal solution found
objective value:                      6.0609243697479
_var712_                            0.132352941176469 	(obj:1)
_var713_                            0.388655462184872 	(obj:1)
_var714_                            0.355042016806722 	(obj:0)
_var719_                            0.300420168067225 	(obj:0)
_var726_                           0.0210084033613437 	(obj:0)
_var732_                            0.752100840336134 	(obj:0)
_var750_                            0.409663865546218 	(obj:1)
_var762_                             0.15126050420168 	(obj:0)
_var763_                           0.0798319327731103 	(obj:2)
_var771_                            0.476890756302521 	(obj:0)
_var785_                           0.0399159663865538 	(obj:1)
_var794_                            0.266806722689076 	(obj:0)
_var796_                          0.00420168067227028 	(obj:0)
_var801_                            0.119747899159663 	(obj:1)
_var824_                            0.388655462184874 	(obj:0)
_var827_                            0.256302521008404 	(obj:0)
_var828_                            0.436974789915966 	(obj:1)
_var833_                            0.478991596638656 	(obj:0)
_var835_                          0.00840336134453773 	(obj:1)
_var837_                            0.165966386554622 	(obj:1)
_var841_                            0.563025210084034 	(obj:0)
_var843_                            0.357142857142856 	(obj:1)
_var850_                            0.126050420168068 	(obj:1)
_var856_                            0.460084033613448 	(obj:1)
_var859_                            0.132352941176469 	(obj:0)
_var862_                            0.224789915966386 	(obj:0)
_var863_                            0.363445378151261 	(obj:2)
_var864_                           0.0798319327731103 	(obj:1)
_var867_                           0.0315126050420156 	(obj:2)
_var868_                            0.170168067226892 	(obj:0)
_var869_                            0.247899159663866 	(obj:0)
_var870_                             0.11344537815126 	(obj:1)
_var873_                            0.327731092436975 	(obj:1)
_var876_                            0.119747899159664 	(obj:2)
_var883_                            0.018907563025212 	(obj:0)
_var884_                            0.073529411764705 	(obj:1)
_var885_                            0.168067226890756 	(obj:0)
_var886_                            0.266806722689076 	(obj:2)
_var887_                           0.0357142857142843 	(obj:1)
_var890_                           0.0231092436974788 	(obj:1)
_var893_                           0.0777310924369749 	(obj:0)
_var898_                           0.0777310924369748 	(obj:1)
_var899_                            0.138655462184873 	(obj:0)
_var901_                            0.224789915966388 	(obj:1)
_var902_                            0.233193277310925 	(obj:0)
_var904_                            0.165966386554622 	(obj:1)
_var905_                             0.15966386554622 	(obj:1)
_var906_                          0.00420168067226685 	(obj:1)
_var911_                            0.170168067226891 	(obj:0)
_var913_                           0.0483193277310917 	(obj:1)
_var916_                           0.0315126050420154 	(obj:1)
_var917_                           0.0294117647058827 	(obj:2)
_var918_                            0.199579831932772 	(obj:0)
_var919_                            0.111344537815127 	(obj:1)
_var926_                           0.0336134453781526 	(obj:0)
_var928_                           0.0672268907563025 	(obj:1)
_var930_                           0.0903361344537811 	(obj:1)
