results_rootrelaxation/bin012_070_025.srr.log
SCIP version 8.0.3.5 [precision: 8 byte] [memory: block] [mode: optimized] [LP solver: Soplex 6.0.1.3] [GitHash: 438792519e]
Copyright (c) 2002-2023 Zuse Institute Berlin (ZIB)

External libraries: 
  Readline 8.1         GNU library for command line editing (gnu.org/s/readline)
  Soplex 6.0.1.3       Linear Programming Solver developed at Zuse Institute Berlin (soplex.zib.de) [GitHash: 713be0fe]
  CppAD 20180000.0     Algorithmic Differentiation of C++ algorithms developed by B. Bell (github.com/coin-or/CppAD)
  ZLIB 1.2.11          General purpose compression library by J. Gailly and M. Adler (zlib.net)
  bliss 0.77           Computing Graph Automorphism Groups by T. Junttila and P. Kaski (www.tcs.hut.fi/Software/bliss/)

user parameter file <scip.set> not found - using default parameters

srr/relaxation = TRUE

read problem <instances/bin012_070_025.srr>
============

Original problem: 
original problem has 0 variables (0 bin, 0 int, 0 impl, 0 cont) and 77 constraints

presolving:
presolving (1 rounds: 1 fast, 1 medium, 1 exhaustive):
 0 deleted vars, 0 deleted constraints, 0 added constraints, 0 tightened bounds, 0 added holes, 0 changed sides, 0 changed coefficients
 0 implications, 0 cliques
presolved problem has 0 variables (0 bin, 0 int, 0 impl, 0 cont) and 77 constraints
     77 constraints of type <linear>
Presolving Time: 0.00

 time | node  | left  |LP iter|LP it/n|mem/heur|mdpt |vars |cons |rows |cuts |sepa|confs|strbr|  dualbound   | primalbound  |  gap   | compl. 
  0.0s|     1 |     0 |     1 |     - |   710k |   0 |   1 |  77 |  77 |   0 |  0 |   0 |   0 |      --      |      --      |    Inf | unknown
r 0.1s|     1 |     0 |  1034 |     - |simplero|   0 | 679 |  77 |  77 |   0 |  0 |   0 |   0 |      --      | 2.811028e+01 |    Inf | unknown
r 0.1s|     1 |     0 |  1059 |     - |simplero|   0 | 690 |  77 |  77 |   0 |  0 |   0 |   0 |      --      | 2.735701e+01 |    Inf | unknown
r 0.1s|     1 |     0 |  1125 |     - |simplero|   0 | 701 |  77 |  77 |   0 |  0 |   0 |   0 |      --      | 2.470962e+01 |    Inf | unknown
r 0.1s|     1 |     0 |  1187 |     - |simplero|   0 | 712 |  77 |  77 |   0 |  0 |   0 |   0 |      --      | 2.265128e+01 |    Inf | unknown
r 0.1s|     1 |     0 |  1270 |     - |simplero|   0 | 723 |  77 |  77 |   0 |  0 |   0 |   0 |      --      | 2.043619e+01 |    Inf | unknown
r 0.1s|     1 |     0 |  1352 |     - |simplero|   0 | 734 |  77 |  77 |   0 |  0 |   0 |   0 |      --      | 1.731904e+01 |    Inf | unknown
r 0.1s|     1 |     0 |  1403 |     - |simplero|   0 | 745 |  77 |  77 |   0 |  0 |   0 |   0 |      --      | 1.551194e+01 |    Inf | unknown
r 0.1s|     1 |     0 |  1437 |     - |simplero|   0 | 745 |  77 |  77 |   0 |  0 |   0 |   0 |      --      | 1.518340e+01 |    Inf | unknown
r 0.1s|     1 |     0 |  1445 |     - |simplero|   0 | 745 |  77 |  77 |   0 |  0 |   0 |   0 |      --      | 1.515696e+01 |    Inf | unknown
r 0.1s|     1 |     0 |  1451 |     - |simplero|   0 | 745 |  77 |  77 |   0 |  0 |   0 |   0 |      --      | 1.514792e+01 |    Inf | unknown
r 0.1s|     1 |     0 |  1454 |     - |simplero|   0 | 745 |  77 |  77 |   0 |  0 |   0 |   0 |      --      | 1.514730e+01 |    Inf | unknown
r 0.1s|     1 |     0 |  1517 |     - |simplero|   0 | 756 |  77 |  77 |   0 |  0 |   0 |   0 |      --      | 1.327813e+01 |    Inf | unknown
r 0.1s|     1 |     0 |  1535 |     - |simplero|   0 | 756 |  77 |  77 |   0 |  0 |   0 |   0 |      --      | 1.319300e+01 |    Inf | unknown
r 0.1s|     1 |     0 |  1545 |     - |simplero|   0 | 756 |  77 |  77 |   0 |  0 |   0 |   0 |      --      | 1.315505e+01 |    Inf | unknown
 time | node  | left  |LP iter|LP it/n|mem/heur|mdpt |vars |cons |rows |cuts |sepa|confs|strbr|  dualbound   | primalbound  |  gap   | compl. 
r 0.1s|     1 |     0 |  1581 |     - |simplero|   0 | 767 |  77 |  77 |   0 |  0 |   0 |   0 |      --      | 1.243557e+01 |    Inf | unknown
r 0.1s|     1 |     0 |  1603 |     - |simplero|   0 | 767 |  77 |  77 |   0 |  0 |   0 |   0 |      --      | 1.227734e+01 |    Inf | unknown
r 0.1s|     1 |     0 |  1606 |     - |simplero|   0 | 767 |  77 |  77 |   0 |  0 |   0 |   0 |      --      | 1.226900e+01 |    Inf | unknown
r 0.1s|     1 |     0 |  1632 |     - |simplero|   0 | 778 |  77 |  77 |   0 |  0 |   0 |   0 |      --      | 1.165650e+01 |    Inf | unknown
r 0.1s|     1 |     0 |  1652 |     - |simplero|   0 | 778 |  77 |  77 |   0 |  0 |   0 |   0 |      --      | 1.132984e+01 |    Inf | unknown
r 0.1s|     1 |     0 |  1674 |     - |simplero|   0 | 778 |  77 |  77 |   0 |  0 |   0 |   0 |      --      | 1.120824e+01 |    Inf | unknown
r 0.1s|     1 |     0 |  1675 |     - |simplero|   0 | 778 |  77 |  77 |   0 |  0 |   0 |   0 |      --      | 1.120802e+01 |    Inf | unknown
r 0.1s|     1 |     0 |  1724 |     - |simplero|   0 | 789 |  77 |  77 |   0 |  0 |   0 |   0 |      --      | 1.025190e+01 |    Inf | unknown
r 0.1s|     1 |     0 |  1733 |     - |simplero|   0 | 789 |  77 |  77 |   0 |  0 |   0 |   0 |      --      | 1.024813e+01 |    Inf | unknown
r 0.1s|     1 |     0 |  1737 |     - |simplero|   0 | 789 |  77 |  77 |   0 |  0 |   0 |   0 |      --      | 1.024676e+01 |    Inf | unknown
r 0.1s|     1 |     0 |  1794 |     - |simplero|   0 | 800 |  77 |  77 |   0 |  0 |   0 |   0 |      --      | 9.503441e+00 |    Inf | unknown
r 0.1s|     1 |     0 |  1803 |     - |simplero|   0 | 800 |  77 |  77 |   0 |  0 |   0 |   0 |      --      | 9.478933e+00 |    Inf | unknown
r 0.1s|     1 |     0 |  1813 |     - |simplero|   0 | 800 |  77 |  77 |   0 |  0 |   0 |   0 |      --      | 9.469785e+00 |    Inf | unknown
r 0.1s|     1 |     0 |  1855 |     - |simplero|   0 | 811 |  77 |  77 |   0 |  0 |   0 |   0 |      --      | 9.006568e+00 |    Inf | unknown
r 0.1s|     1 |     0 |  1856 |     - |simplero|   0 | 811 |  77 |  77 |   0 |  0 |   0 |   0 |      --      | 9.005750e+00 |    Inf | unknown
 time | node  | left  |LP iter|LP it/n|mem/heur|mdpt |vars |cons |rows |cuts |sepa|confs|strbr|  dualbound   | primalbound  |  gap   | compl. 
r 0.1s|     1 |     0 |  1887 |     - |simplero|   0 | 822 |  77 |  77 |   0 |  0 |   0 |   0 |      --      | 8.631953e+00 |    Inf | unknown
r 0.1s|     1 |     0 |  1895 |     - |simplero|   0 | 822 |  77 |  77 |   0 |  0 |   0 |   0 |      --      | 8.626019e+00 |    Inf | unknown
r 0.1s|     1 |     0 |  1896 |     - |simplero|   0 | 822 |  77 |  77 |   0 |  0 |   0 |   0 |      --      | 8.625972e+00 |    Inf | unknown
  0.1s|     1 |     0 |  1952 |     - |  4093k |   0 | 833 |  77 |  77 |   0 |  0 |   0 |   0 |      --      | 8.625972e+00 |    Inf | unknown
r 0.1s|     1 |     0 |  1952 |     - |simplero|   0 | 833 |  77 |  77 |   0 |  0 |   0 |   0 |      --      | 8.136731e+00 |    Inf | unknown
r 0.1s|     1 |     0 |  1957 |     - |simplero|   0 | 833 |  77 |  77 |   0 |  0 |   0 |   0 |      --      | 8.133945e+00 |    Inf | unknown
r 0.1s|     1 |     0 |  1989 |     - |simplero|   0 | 844 |  77 |  77 |   0 |  0 |   0 |   0 |      --      | 7.879541e+00 |    Inf | unknown
r 0.1s|     1 |     0 |  2005 |     - |simplero|   0 | 844 |  77 |  77 |   0 |  0 |   0 |   0 |      --      | 7.761378e+00 |    Inf | unknown
r 0.1s|     1 |     0 |  2010 |     - |simplero|   0 | 844 |  77 |  77 |   0 |  0 |   0 |   0 |      --      | 7.755121e+00 |    Inf | unknown
r 0.1s|     1 |     0 |  2046 |     - |simplero|   0 | 855 |  77 |  77 |   0 |  0 |   0 |   0 |      --      | 7.531215e+00 |    Inf | unknown
r 0.1s|     1 |     0 |  2053 |     - |simplero|   0 | 855 |  77 |  77 |   0 |  0 |   0 |   0 |      --      | 7.524239e+00 |    Inf | unknown
r 0.1s|     1 |     0 |  2072 |     - |simplero|   0 | 866 |  77 |  77 |   0 |  0 |   0 |   0 |      --      | 7.293404e+00 |    Inf | unknown
r 0.1s|     1 |     0 |  2101 |     - |simplero|   0 | 877 |  77 |  77 |   0 |  0 |   0 |   0 |      --      | 6.714286e+00 |    Inf | unknown
r 0.1s|     1 |     0 |  2122 |     - |simplero|   0 | 877 |  77 |  77 |   0 |  0 |   0 |   0 |      --      | 6.645954e+00 |    Inf | unknown
r 0.1s|     1 |     0 |  2125 |     - |simplero|   0 | 877 |  77 |  77 |   0 |  0 |   0 |   0 |      --      | 6.644068e+00 |    Inf | unknown
 time | node  | left  |LP iter|LP it/n|mem/heur|mdpt |vars |cons |rows |cuts |sepa|confs|strbr|  dualbound   | primalbound  |  gap   | compl. 
r 0.1s|     1 |     0 |  2150 |     - |simplero|   0 | 887 |  77 |  77 |   0 |  0 |   0 |   0 |      --      | 6.463076e+00 |    Inf | unknown
r 0.1s|     1 |     0 |  2162 |     - |simplero|   0 | 887 |  77 |  77 |   0 |  0 |   0 |   0 |      --      | 6.439556e+00 |    Inf | unknown
r 0.1s|     1 |     0 |  2164 |     - |simplero|   0 | 887 |  77 |  77 |   0 |  0 |   0 |   0 |      --      | 6.437989e+00 |    Inf | unknown
r 0.1s|     1 |     0 |  2177 |     - |simplero|   0 | 897 |  77 |  77 |   0 |  0 |   0 |   0 |      --      | 6.350481e+00 |    Inf | unknown
r 0.1s|     1 |     0 |  2193 |     - |simplero|   0 | 897 |  77 |  77 |   0 |  0 |   0 |   0 |      --      | 6.303571e+00 |    Inf | unknown
r 0.1s|     1 |     0 |  2197 |     - |simplero|   0 | 897 |  77 |  77 |   0 |  0 |   0 |   0 |      --      | 6.302842e+00 |    Inf | unknown
r 0.1s|     1 |     0 |  2224 |     - |simplero|   0 | 902 |  77 |  77 |   0 |  0 |   0 |   0 |      --      | 6.210682e+00 |    Inf | unknown
r 0.1s|     1 |     0 |  2234 |     - |simplero|   0 | 902 |  77 |  77 |   0 |  0 |   0 |   0 |      --      | 6.184932e+00 |    Inf | unknown
r 0.1s|     1 |     0 |  2260 |     - |simplero|   0 | 908 |  77 |  77 |   0 |  0 |   0 |   0 |      --      | 6.118443e+00 |    Inf | unknown
r 0.1s|     1 |     0 |  2274 |     - |simplero|   0 | 917 |  77 |  77 |   0 |  0 |   0 |   0 |      --      | 6.110000e+00 |    Inf | unknown
r 0.1s|     1 |     0 |  2280 |     - |simplero|   0 | 917 |  77 |  77 |   0 |  0 |   0 |   0 |      --      | 6.105246e+00 |    Inf | unknown
r 0.1s|     1 |     0 |  2305 |     - |simplero|   0 | 925 |  77 |  77 |   0 |  0 |   0 |   0 |      --      | 6.073864e+00 |    Inf | unknown
r 0.1s|     1 |     0 |  2315 |     - |simplero|   0 | 930 |  77 |  77 |   0 |  0 |   0 |   0 |      --      | 6.065134e+00 |    Inf | unknown
r 0.1s|     1 |     0 |  2324 |     - |simplero|   0 | 931 |  77 |  77 |   0 |  0 |   0 |   0 |      --      | 6.060924e+00 |    Inf | unknown
  0.1s|     1 |     0 |  2324 |     - |  4401k |   0 | 931 |  77 |  77 |   0 |  0 |   0 |   0 | 6.060924e+00 | 6.060924e+00 |   0.00%| unknown
 time | node  | left  |LP iter|LP it/n|mem/heur|mdpt |vars |cons |rows |cuts |sepa|confs|strbr|  dualbound   | primalbound  |  gap   | compl. 
  0.1s|     1 |     0 |  2324 |     - |  4401k |   0 | 931 |  77 |  77 |   0 |  0 |   0 |   0 | 6.060924e+00 | 6.060924e+00 |   0.00%| unknown

SCIP Status        : problem is solved [optimal solution found]
Solving Time (sec) : 0.14
Solving Nodes      : 1
Primal Bound       : +6.06092436974790e+00 (57 solutions)
Dual Bound         : +6.06092436974790e+00
Gap                : 0.00 %

written transformed problem to file <results_rootrelaxation/bin012_070_025.srr.lp>
written transformed problem to file <results_rootrelaxation/bin012_070_025.srr.cip>

written solution information to file <results_rootrelaxation/bin012_070_025.srr.sol>



